6802
124,93,126,52,111,105,33,92,54,134,138,46,90,25,20,51,109,43,67,116,101,39,57,41,117,140,60,66,17,130,148,11,61,36,69,127,118,24,12,53,40,139,47,120,42,9,28,6,37,2,19,99,114,102,137,132,65,55,58,50,135,70,108,86,29,110,81,141,83,56,146,26,75,18,85,142,97,143,100,5,107,95,82,103,98,1,87,34,76,73,3,62,149,125,22,104,4,128,68,119,91,106,13,74,123,31,27,129,144,23,38,32,131,77,133,122,14,80,72,49,147,145,136,112,64,44,71,45,115,150,21,78,15,16,59,79,121,88,94,10,113,48,63,30,84,7,8,89,96,35,124
